data/solutions/recovery/wellformed/intermediate/binding/wellformed_intermediate_instance73/23.sol
Elapsed time: 0.05
Upper bound: 4562.0
Planning weighted value: 204160805.0
C[0]=4562.0
C[1]=4509.0
C[2]=4442.0
C[3]=4294.0
C[4]=3882.0
C[5]=3866.0
C[6]=3743.0
C[7]=3651.0
C[8]=3476.0
C[9]=3271.0
C[10]=3096.0
C[11]=3089.0
C[12]=3056.0
C[13]=2895.0
C[14]=2730.0
C[15]=0.0
y[0]=0
y[1]=9
y[2]=11
y[3]=5
y[4]=9
y[5]=11
y[6]=3
y[7]=6
y[8]=3
y[9]=12
y[10]=3
y[11]=13
y[12]=7
y[13]=2
y[14]=1
y[15]=7
y[16]=6
y[17]=3
y[18]=8
y[19]=13
y[20]=11
y[21]=0
y[22]=10
y[23]=4
y[24]=2
y[25]=0
y[26]=3
y[27]=3
y[28]=4
y[29]=6
y[30]=10
y[31]=14
y[32]=14
y[33]=14
y[34]=10
y[35]=6
y[36]=10
y[37]=12
y[38]=14
y[39]=0
y[40]=6
y[41]=2
y[42]=2
y[43]=9
y[44]=10
y[45]=0
y[46]=1
y[47]=9
y[48]=12
y[49]=10
y[50]=7
y[51]=5
y[52]=2
y[53]=6
y[54]=12
y[55]=5
y[56]=7
y[57]=3
y[58]=13
y[59]=13
y[60]=5
y[61]=14
y[62]=3
y[63]=4
y[64]=14
y[65]=0
y[66]=1
y[67]=13
y[68]=12
y[69]=8
y[70]=3
y[71]=14
y[72]=4
y[73]=2
y[74]=8
y[75]=3
y[76]=5
y[77]=0
y[78]=0
y[79]=3
y[80]=6
y[81]=7
y[82]=10
y[83]=8
y[84]=11
y[85]=1
y[86]=8
y[87]=1
y[88]=5
y[89]=3
y[90]=12
y[91]=0
y[92]=12
y[93]=13
y[94]=12
y[95]=2
y[96]=11
y[97]=3
y[98]=9
y[99]=0
y[100]=13
y[101]=2
y[102]=8
y[103]=6
y[104]=1
y[105]=4
y[106]=2
y[107]=5
